* ENCODING=ISO-8859-1
NAME          zooexportmodel
ROWS
 N  obj1    
 G  c1      
COLUMNS
    MARK0000  'MARKER'                 'INTORG'
    nbBus40   obj1                          500
    nbBus40   c1                             40
    nbBus30   obj1                          400
    nbBus30   c1                             30
    MARK0001  'MARKER'                 'INTEND'
RHS
    rhs       c1                            300
BOUNDS
 LI bnd       nbBus40   0
 LI bnd       nbBus30   0
ENDATA
